NAME        
OBJSENSE
  MAX
ROWS
 N  Obj     
 L  r0      
COLUMNS
    c0        Obj       5
    c0        r0        2
    c1        Obj       3
    c1        r0        8
    c2        Obj       2
    c2        r0        4
    c3        Obj       7
    c3        r0        2
    c4        Obj       4
    c4        r0        5
RHS
    RHS_V     r0        10
BOUNDS
 FR BOUND     c0      
 FR BOUND     c1      
 FR BOUND     c2      
 FR BOUND     c3      
 FR BOUND     c4      
ENDATA
